
--- Job Upstream_4.gms Start 10/20/25 17:24:40 49.6.1 55d34574 WEX-WEI x86 64bit/MS Windows
--- Applying:
    C:\GAMS\49\gmsprmNT.txt
--- GAMS Parameters defined
    Input C:\Users\ronnie\Documents\GAMS\Studio\workspace\Pyro\Upstream_4.gms
    PageSize 0
    ScrDir C:\Users\ronnie\Documents\GAMS\Studio\workspace\Pyro\225a\
    SysDir C:\GAMS\49\
    LogOption 3
    ErrMsg 1
    ErrorLog 99
    IDE 1
    LstTitleLeftAligned 1
Licensee: Large MUD - 20 User License                    S231215|0002AN-WIN
          Leibniz-Zentrum fuer Agrarlandschaftsforschung (ZALF) e. V.DC8734
          C:\Users\ronnie\Documents\GAMS\gamslice.txt
          License Admin: Peter Zander, Peter.Zander@zalf.de                
          The maintenance period of the license will expire on Apr 03, 2026
System information: 10 physical cores and 16 Gb memory detected
GAMS 49.6.1   Copyright (C) 1987-2025 GAMS Development. All rights reserved
--- Starting compilation
--- Upstream_4.gms(294) 3 Mb
--- call gdxdump excel_out.gdx symb=UC_lane    > UC_lane.csv
--- Upstream_4.gms(295) 3 Mb
--- call gdxdump excel_out.gdx symb=UM_lane    > UM_lane.csv
--- Upstream_4.gms(296) 3 Mb
--- call gdxdump excel_out.gdx symb=BE_radius  > BE_radius.csv
--- Upstream_4.gms(297) 3 Mb
--- call gdxdump excel_out.gdx symb=Rev_lane   > Rev_lane.csv
--- Upstream_4.gms(298) 3 Mb
--- call gdxdump excel_out.gdx symb=Cost_lane  > Cost_lane.csv
--- Upstream_4.gms(299) 3 Mb
--- call gdxdump excel_out.gdx symb=GM_lane    > GM_lane.csv
--- Starting execution: elapsed 0:00:00.655
--- Upstream_4.gms(197) 4 Mb
--- Generating LP model Upstream_B
--- Upstream_4.gms(203) 4 Mb
---   8 rows  15 columns  53 non-zeroes
--- Range statistics (absolute non-zero finite values)
--- RHS       [min, max] : [ 4.060E+02, 1.224E+03] - Zero values observed as well
--- Bound     [min, max] : [        NA,        NA] - Zero values observed as well
--- Matrix    [min, max] : [ 1.000E+00, 4.794E+01]
--- Executing CPLEX (Solvelink=2): elapsed 0:00:00.680

IBM ILOG CPLEX   49.6.1 55d34574 May 28, 2025          WEI x86 64bit/MS Window

--- GAMS/CPLEX licensed for continuous and discrete problems.
--- GMO setup time: 0.00s
--- GMO memory 0.50 Mb (peak 0.50 Mb)
--- Dictionary memory 0.00 Mb
--- Cplex 22.1.2.0 link memory 0.00 Mb (peak 0.00 Mb)
--- Starting Cplex

Version identifier: 22.1.2.0 | 2024-11-25 | 0edbb82fd
CPXPARAM_Advance                                 0
CPXPARAM_Simplex_Display                         2
CPXPARAM_MIP_Display                             4
CPXPARAM_MIP_Pool_Capacity                       0
CPXPARAM_MIP_Tolerances_AbsMIPGap                0
Tried aggregator 1 time.
LP Presolve eliminated 5 rows and 15 columns.
All rows and columns eliminated.
Presolve time = 0.02 sec. (0.01 ticks)

--- LP status (1): optimal.
--- Cplex Time: 0.02sec (det. 0.01 ticks)


Optimal solution found
Objective:         8483.437060

--- Reading solution for model Upstream_B
--- Executing after solve: elapsed 0:00:00.841
--- Upstream_4.gms(254) 4 Mb
    --- Location-aware GM report generated (Option B, labor toggles).
--- Upstream_4.gms(284) 4 Mb
--- GDX File (execute_unload) C:\Users\ronnie\Documents\GAMS\Studio\workspace\Pyro\miro_out.gdx
--- Upstream_4.gms(289) 4 Mb
--- GDX File (execute_unload) C:\Users\ronnie\Documents\GAMS\Studio\workspace\Pyro\excel_out.gdx
*** Status: Normal completion
--- Job Upstream_4.gms Stop 10/20/25 17:24:41 elapsed 0:00:00.846
